NAME: random84
TYPE: TSP
DIMENSION: 84
EDGE_WEIGHT_TYPE: EXPLICIT
EDGE_WEIGHT_FORMAT: FULL_MATRIX
EDGE_WEIGHT_SECTION
0 1290 1290 17 1290 1290 1290 1290 1290 1290 1290 1290 1290 1290 1290 1290 1290 1290 1290 1290 1290 1290 1290 1290 1290 1290 1290 1290 1290 1290 1290 1290 1290 1290 1290 9 1290 1290 1290 1290 1290 1290 1290 1290 1290 1290 1290 1290 1290 1290 1290 1290 1290 1290 1290 1290 1290 1290 1290 1290 1290 1290 1290 1290 1290 1290 1290 1290 1290 1290 25 10 1290 1290 1290 15 1290 1290 1290 1290 1290 1290 1290 1290
1290 0 1290 1290 1290 1290 1290 1290 1290 1290 1290 1290 24 1290 1290 1290 1290 22 1290 1290 11 1290 1290 1290 1290 1290 1290 1290 1290 1290 1290 1290 1290 1290 1290 1290 1290 1290 1290 1290 1290 1290 1290 1290 1290 13 1290 1290 1290 1290 1290 1290 1290 1290 1290 1290 3 13 1290 1290 1290 1290 1290 10 1290 1290 1290 1290 1290 1290 1290 1290 1290 1290 1290 1290 1290 1290 1290 1290 1290 1290 1290 1290
1290 1290 0 1290 1290 1290 1290 1290 1290 6 1290 1290 1290 1290 1 1290 1290 1290 1290 1290 1290 15 1290 1290 1290 1290 1290 1290 1290 1290 1290 1290 1290 1290 1290 1290 1290 1290 1290 1290 1290 1290 1290 1290 1290 1290 1290 1290 1290 1290 1290 1290 1290 1290 1290 1290 1290 1290 1290 1290 1290 1290 1290 1290 1290 1290 1290 6 1290 1290 1290 1290 8 1290 1290 1290 1290 1290 1290 1290 1290 1290 1290 1290
17 1290 1290 0 1290 1290 1290 1290 1290 1290 1290 1290 1290 1290 1290 1290 16 1290 1290 1290 1290 1290 1290 16 1290 1290 1290 1290 1290 1290 1290 1290 1290 1290 1290 16 1290 1290 1290 1290 1290 1290 11 1290 1290 1290 1290 1290 1290 1290 1290 1290 1290 1290 1290 1290 1290 1290 1290 1290 1290 1290 1290 1290 12 1290 1290 1290 1290 15 1290 18 1290 1290 1290 1290 1290 1290 1290 1290 1290 1290 1290 1290
1290 1290 1290 1290 0 1290 1290 1290 1290 1290 1290 1290 1290 1290 1290 1290 1290 1290 1290 1290 1290 1290 15 1290 1290 1290 1290 1290 1290 1290 1290 1290 9 1290 1290 1290 1290 1290 1290 1290 14 1290 1290 1290 1290 1290 1290 1290 1290 1290 1290 1290 1290 1290 11 1290 1290 1290 1290 1290 1290 1290 1290 1290 1290 1290 1290 1290 1290 1290 1290 1290 1290 1290 1290 1290 1290 4 1290 1290 1290 1290 1290 1290
1290 1290 1290 1290 1290 0 1290 1290 1290 1290 1290 1290 1290 1290 1290 1290 1290 1290 1290 1290 1290 1290 1290 1290 1290 1290 1290 1290 1290 1290 1290 1290 1290 1290 1290 1290 1290 8 11 1290 1290 1290 1290 1290 1290 1290 1290 1290 1290 1290 1290 1290 1290 1290 1290 1290 1290 1290 1290 1290 1290 6 1290 9 1290 1290 8 1290 1290 1290 1290 1290 1290 1290 1290 1290 1290 1290 1290 1290 10 1290 15 1290
1290 1290 1290 1290 1290 1290 0 1290 1290 1290 1290 1290 1290 1290 1290 1290 1290 1290 1290 1290 1290 3 1290 1290 1290 1290 1290 1290 5 1290 1290 1290 1290 1290 1290 1290 1290 1290 1290 1290 1290 1290 1290 1290 1290 1290 1290 1290 1290 1290 16 1290 1290 1290 1290 1290 1290 1290 1290 1290 1290 1290 1290 1290 1290 1290 1290 1290 1290 1290 1290 1290 1290 1290 1290 1290 19 1290 1290 1290 1290 1290 1290 1290
1290 1290 1290 1290 1290 1290 1290 0 1290 1290 1290 1290 1290 1290 1290 1290 1290 1290 1290 1290 1290 1290 1290 1290 1290 1290 1290 1290 1290 1290 19 1290 1290 1290 1290 1290 1290 1290 1290 1290 1290 1290 1290 1290 18 1290 1290 5 1290 1290 24 1290 1290 1290 1290 1290 1290 1290 1290 1290 1290 1290 13 1290 1290 1290 1290 1290 8 1290 1290 1290 1290 1290 27 1290 23 1290 1290 1290 1290 1290 1290 1290
1290 1290 1290 1290 1290 1290 1290 1290 0 1290 1290 1290 1290 1290 1290 1290 1290 1290 1290 1290 1290 1290 1290 1290 1290 1290 1290 1290 1290 1290 24 1290 1290 1290 12 1290 1290 1290 1290 1290 1290 1290 1290 15 1290 1290 1290 1290 1290 1290 1290 1290 10 1290 1290 8 1290 1290 1290 1290 1290 1290 1290 1290 1290 1290 1290 1290 1290 1290 1290 1290 1290 1290 1290 1290 1290 1290 12 1290 1290 1290 1290 1290
1290 1290 6 1290 1290 1290 1290 1290 1290 0 1290 1290 1290 1290 5 1290 1290 1290 1290 1290 1290 1290 1290 1290 1290 1290 1290 1290 1290 1290 1290 1290 1290 1290 1290 1290 1290 1290 1290 1290 1290 1290 1290 1290 1290 1290 1290 1290 1290 1290 1290 3 1290 1290 47 1290 1290 1290 29 1290 1290 1290 1290 1290 1290 1290 1290 1290 1290 1290 1290 1290 1290 1290 1290 1290 1290 1290 1290 1290 1290 1290 1290 1290
1290 1290 1290 1290 1290 1290 1290 1290 1290 1290 0 1290 1290 4 1290 11 1290 1290 1290 1290 1290 1290 7 1290 1290 1290 1290 1290 1290 1290 1290 1290 1290 1290 1290 1290 1290 1290 1290 1290 1290 1290 1290 1290 1290 1290 1290 1290 1290 1290 1290 1290 1290 1290 1290 1290 1290 1290 11 1290 1290 1290 1290 1290 1290 3 1290 1290 1290 1290 1290 1290 1290 1290 1290 1290 1290 1290 1290 1290 1290 1290 1290 1290
1290 1290 1290 1290 1290 1290 1290 1290 1290 1290 1290 0 1290 1290 1290 1290 1290 19 1290 1290 1290 1290 1290 1290 1290 1290 1290 1290 1290 1290 1290 1290 1290 6 74 1290 1290 1290 1290 21 1290 1290 1290 1290 1290 1290 1290 1290 1290 1290 1290 1290 1290 1290 1290 1290 1290 1290 1290 42 1290 1290 1290 1290 1290 1290 1290 1290 1290 1290 1290 1290 1290 1290 1290 1290 1290 1290 1290 1290 1290 1290 1290 1290
1290 24 1290 1290 1290 1290 1290 1290 1290 1290 1290 1290 0 1290 1290 1290 1290 21 1290 1290 1290 1290 1290 1290 1290 1290 1290 1290 1290 1290 1290 17 1290 1290 1290 1290 1290 1290 1290 13 1290 1290 1290 1290 1290 1290 1290 1290 15 1290 1290 1290 1290 7 1290 1290 1290 21 1290 1290 1290 1290 1290 1290 1290 1290 1290 1290 1290 1290 1290 1290 1290 10 1290 1290 1290 1290 1290 1290 1290 1290 1290 1290
1290 1290 1290 1290 1290 1290 1290 1290 1290 1290 4 1290 1290 0 1290 10 1290 1290 1290 1290 1290 1290 1290 1290 1290 1290 1290 1290 1290 1290 1290 1290 1290 1290 1290 1290 1290 1290 1290 1290 1290 1290 1290 1290 1290 1290 1290 1290 1290 1290 25 1290 1290 1290 1290 1290 1290 1290 1290 1290 1290 1290 1290 1290 1290 1 1290 1290 1290 1290 1290 1290 1290 1290 5 1290 1290 1290 1290 1290 1290 1290 1290 1290
1290 1290 1 1290 1290 1290 1290 1290 1290 5 1290 1290 1290 1290 0 1290 1290 1290 1290 1290 1290 1290 1290 1290 1290 1290 1290 1290 1290 1290 1290 1290 1290 1290 1290 1290 1290 1290 1290 1290 1290 1290 1290 1290 1290 1290 1290 1290 1290 1290 1290 8 1290 1290 1290 1290 1290 1290 1290 1290 1290 1290 1290 1290 1290 1290 1290 5 1290 1290 1290 1290 1290 1290 1290 1290 1290 1290 1290 1290 1290 1290 1290 1290
1290 1290 1290 1290 1290 1290 1290 1290 1290 1290 11 1290 1290 10 1290 0 1290 1290 1290 1290 1290 1290 15 1290 1290 1290 16 1290 1290 1290 1290 1290 1290 1290 1290 1290 1290 1290 1290 1290 8 1290 1290 1290 1290 1290 1290 1290 1290 1290 1290 1290 1290 1290 1290 1290 1290 1290 1290 1290 1290 1290 19 1290 1290 1290 1290 1290 1290 1290 1290 1290 1290 1290 8 1290 1290 1290 1290 1290 1290 1290 1290 1290
1290 1290 1290 16 1290 1290 1290 1290 1290 1290 1290 1290 1290 1290 1290 1290 0 1290 1290 1290 1290 1290 1290 1290 1290 1290 1290 1290 1290 1290 1290 1290 1290 1290 1290 1290 1290 1290 1290 1290 1290 1290 8 1290 1290 1290 1290 1290 1290 1 1290 1290 1290 1290 1290 1290 1290 1290 1290 1290 1290 1290 1290 1290 1290 1290 1290 1290 1290 1290 1290 22 1290 1290 1290 1290 1290 1290 1290 1290 8 1290 21 1290
1290 22 1290 1290 1290 1290 1290 1290 1290 1290 1290 19 21 1290 1290 1290 1290 0 1290 1290 13 1290 1290 1290 1290 1290 1290 1290 1290 18 1290 1290 1290 21 1290 1290 1290 1290 1290 19 1290 1290 1290 1290 1290 1290 1290 1290 1290 1290 1290 1290 1290 1290 1290 1290 1290 1290 1290 1290 1290 1290 1290 1290 1290 1290 1290 1290 1290 1290 1290 1290 1290 1290 1290 1290 1290 1290 1290 1290 1290 1290 1290 1290
1290 1290 1290 1290 1290 1290 1290 1290 1290 1290 1290 1290 1290 1290 1290 1290 1290 1290 0 1290 1290 1290 1290 1290 1290 1290 1290 1290 1290 1290 1290 1290 1290 1290 1290 1290 1290 1290 2 1290 1290 1290 1290 1290 1290 9 1290 1290 1290 1290 1290 1290 1290 1290 1290 1290 1290 1290 1290 1290 1290 1290 1290 1290 1290 1290 1290 1290 1290 1290 1290 1290 1290 1290 1290 5 1290 1290 1290 1290 1290 1290 4 1290
1290 1290 1290 1290 1290 1290 1290 1290 1290 1290 1290 1290 1290 1290 1290 1290 1290 1290 1290 0 1290 1290 1290 1290 1290 1290 1290 1290 1290 1290 1290 1290 2 1290 1290 1290 1290 1290 1290 1290 1290 17 8 1290 1290 1290 1290 1290 1290 13 1290 1290 1290 1290 1290 1290 1290 1290 1290 1290 1290 1290 1290 1290 12 1290 1290 1290 1290 1290 1290 1290 1290 1290 1290 1290 1290 11 1290 1290 1290 1290 1290 1290
1290 11 1290 1290 1290 1290 1290 1290 1290 1290 1290 1290 1290 1290 1290 1290 1290 13 1290 1290 0 1290 1290 1290 1290 11 1290 1290 1290 13 1290 1290 1290 1290 1290 1290 1290 1290 1290 1290 1290 1290 1290 1290 1290 11 1290 1290 1290 1290 1290 1290 1290 1290 1290 1290 1290 1290 1290 1290 1290 1290 1290 1290 1290 1290 1290 1290 1290 1290 1290 1290 1290 1290 1290 1290 1290 1290 1290 1290 1290 1290 1290 1290
1290 1290 15 1290 1290 1290 3 1290 1290 1290 1290 1290 1290 1290 1290 1290 1290 1290 1290 1290 1290 0 1290 1290 1290 1290 1290 1290 6 1290 1290 1290 1290 1290 1290 1290 1290 1290 1290 1290 1290 1290 1290 44 1290 1290 1290 1290 1290 1290 1290 1290 1290 1290 1290 1290 1290 1290 1290 1290 1290 1290 1290 1290 1290 1290 1290 1290 1290 1290 1290 1290 8 1290 1290 1290 21 1290 51 1290 1290 1290 1290 1290
1290 1290 1290 1290 15 1290 1290 1290 1290 1290 7 1290 1290 1290 1290 15 1290 1290 1290 1290 1290 1290 0 1290 1290 1290 1290 1290 1290 1290 1290 1290 1290 1290 1290 1290 1290 1290 1290 1290 17 1290 1290 1290 1290 1290 1290 1290 1290 1290 1290 1290 1290 1290 12 1290 1290 1290 9 1290 1290 1290 1290 1290 1290 1290 1290 1290 1290 1290 1290 1290 1290 1290 1290 1290 1290 1290 1290 1290 1290 1290 1290 1290
1290 1290 1290 16 1290 1290 1290 1290 1290 1290 1290 1290 1290 1290 1290 1290 1290 1290 1290 1290 1290 1290 1290 0 1290 1290 1290 1290 1290 1290 1290 1290 1290 1290 1290 13 24 1290 1290 1290 1290 1290 1290 1290 1290 1290 1290 1290 1290 1290 1290 1290 1290 1290 1290 1290 1290 1290 1290 1290 1290 1290 1290 1290 1290 1290 1290 1290 1290 5 1290 1290 1290 1290 1290 1290 1290 1290 1290 1290 1290 1290 1290 1290
1290 1290 1290 1290 1290 1290 1290 1290 1290 1290 1290 1290 1290 1290 1290 1290 1290 1290 1290 1290 1290 1290 1290 1290 0 1290 6 1290 1290 1290 1290 1290 1290 1290 1290 1290 1290 1290 1290 1290 12 1290 1290 1290 1290 1290 1290 1290 1290 13 1290 1290 1290 1290 1290 1290 1290 1290 1290 1290 3 1290 1290 1290 1290 1290 1290 1290 1290 1290 1290 1290 1290 1290 1290 1290 1290 1290 1290 1290 1290 1290 1290 6
1290 1290 1290 1290 1290 1290 1290 1290 1290 1290 1290 1290 1290 1290 1290 1290 1290 1290 1290 1290 11 1290 1290 1290 1290 0 1290 1290 1290 8 1290 1290 1290 1290 1290 1290 1290 1290 1290 1290 1290 1290 1290 1290 1290 8 1290 1290 1290 1290 1290 1290 1290 1290 1290 1290 1290 1290 1290 1290 1290 1290 1290 1290 1290 1290 1290 1290 1290 1290 6 1290 1290 1290 1290 13 1290 1290 1290 1290 1290 1290 1290 1290
1290 1290 1290 1290 1290 1290 1290 1290 1290 1290 1290 1290 1290 1290 1290 16 1290 1290 1290 1290 1290 1290 1290 1290 6 1290 0 1290 1290 1290 1290 1290 1290 1290 1290 1290 1290 1290 1290 1290 15 1290 1290 1290 1290 1290 1290 1290 1290 1290 1290 1290 1290 1290 1290 1290 1290 1290 1290 1290 1290 1290 8 1290 1290 1290 1290 1290 1290 1290 1290 1290 1290 1290 1290 1290 1290 1290 1290 1290 1290 1290 1290 1
1290 1290 1290 1290 1290 1290 1290 1290 1290 1290 1290 1290 1290 1290 1290 1290 1290 1290 1290 1290 1290 1290 1290 1290 1290 1290 1290 0 1290 1290 1290 1290 1290 1290 1290 1290 1290 1290 1290 1290 1290 1290 1290 1290 1290 1290 12 1290 16 1290 1290 1290 1290 1290 1290 1290 1290 11 1290 1290 1290 1290 1290 1290 1290 1290 1290 1290 15 1290 1290 1290 1290 1290 1290 1290 1290 1290 1290 6 1290 1290 1290 14
1290 1290 1290 1290 1290 1290 5 1290 1290 1290 1290 1290 1290 1290 1290 1290 1290 1290 1290 1290 1290 6 1290 1290 1290 1290 1290 1290 0 1290 1290 1290 1290 1290 1290 1290 1290 1290 1290 1290 1290 1290 1290 1290 1290 1290 1290 1290 1290 1290 15 16 1290 1290 1290 1290 1290 1290 1290 1290 1290 1290 1290 1290 1290 30 1290 9 1290 1290 1290 1290 8 1290 1290 1290 1290 1290 1290 1290 1290 1290 1290 1290
1290 1290 1290 1290 1290 1290 1290 1290 1290 1290 1290 1290 1290 1290 1290 1290 1290 18 1290 1290 13 1290 1290 1290 1290 8 1290 1290 1290 0 1290 1290 1290 28 1290 1290 1290 1290 1290 1290 1290 1290 1290 1290 1290 1290 1290 1290 1290 1290 1290 1290 1290 1290 1290 1290 1290 1290 1290 1290 1290 1290 1290 1290 1290 1290 1290 1290 1290 1290 8 1290 1290 1290 1290 1290 1290 1290 1290 1290 1290 1290 1290 1290
1290 1290 1290 1290 1290 1290 1290 19 24 1290 1290 1290 1290 1290 1290 1290 1290 1290 1290 1290 1290 1290 1290 1290 1290 1290 1290 1290 1290 1290 0 34 1290 1290 1290 1290 1290 1290 1290 1290 1290 1290 1290 16 7 1290 1290 1290 1290 1290 1290 1290 24 1290 1290 1290 1290 1290 1290 1290 1290 1290 1290 1290 1290 1290 1290 1290 22 1290 1290 1290 1290 1290 1290 1290 1290 1290 1290 1290 1290 1290 1290 1290
1290 1290 1290 1290 1290 1290 1290 1290 1290 1290 1290 1290 17 1290 1290 1290 1290 1290 1290 1290 1290 1290 1290 1290 1290 1290 1290 1290 1290 1290 34 0 1290 1290 1290 1290 1290 1290 1290 1290 1290 1290 1290 1290 1290 1290 1290 1290 15 1290 1290 1290 27 13 1290 1290 1290 1290 1290 14 1290 1290 1290 1290 1290 1290 1290 1290 25 1290 1290 1290 1290 1290 1290 1290 1290 1290 1290 1290 1290 1290 1290 1290
1290 1290 1290 1290 9 1290 1290 1290 1290 1290 1290 1290 1290 1290 1290 1290 1290 1290 1290 2 1290 1290 1290 1290 1290 1290 1290 1290 1290 1290 1290 1290 0 1290 1290 1290 1290 1290 1290 1290 14 1290 1290 1290 1290 1290 1290 1290 1290 14 1290 1290 1290 1290 1290 1290 1290 1290 1290 1290 1290 1290 1290 1290 1290 1290 1290 1290 1290 1290 1290 1290 1290 1290 1290 1290 1290 10 1290 1290 1290 1290 1290 1290
1290 1290 1290 1290 1290 1290 1290 1290 1290 1290 1290 6 1290 1290 1290 1290 1290 21 1290 1290 1290 1290 1290 1290 1290 1290 1290 1290 1290 28 1290 1290 1290 0 1290 1290 1290 1290 1290 1290 1290 1290 1290 1290 1290 1290 1290 1290 1290 1290 1290 1290 1290 1290 1290 1290 1290 1290 1290 1290 1290 1290 1290 1290 1290 1290 1290 1290 1290 1290 36 1290 1290 1290 1290 1290 1290 1290 1290 1290 1290 1290 1290 1290
1290 1290 1290 1290 1290 1290 1290 1290 12 1290 1290 74 1290 1290 1290 1290 1290 1290 1290 1290 1290 1290 1290 1290 1290 1290 1290 1290 1290 1290 1290 1290 1290 1290 0 1290 1290 1290 1290 1290 1290 1290 1290 1290 1290 1290 1290 1290 1290 1290 1290 1290 8 1290 1290 14 1290 1290 1290 32 1290 1290 1290 1290 1290 1290 1290 1290 1290 1290 1290 1290 1290 1290 1290 1290 1290 1290 1290 1290 1290 1290 1290 1290
9 1290 1290 16 1290 1290 1290 1290 1290 1290 1290 1290 1290 1290 1290 1290 1290 1290 1290 1290 1290 1290 1290 13 1290 1290 1290 1290 1290 1290 1290 1290 1290 1290 1290 0 1290 1290 1290 1290 1290 1290 1290 1290 1290 1290 1290 1290 1290 1290 1290 1290 1290 1290 1290 1290 1290 1290 1290 1290 1290 1290 1290 1290 1290 1290 1290 1290 1290 1290 34 1290 1290 1290 1290 1290 1290 1290 1290 1290 1290 1290 1290 1290
1290 1290 1290 1290 1290 1290 1290 1290 1290 1290 1290 1290 1290 1290 1290 1290 1290 1290 1290 1290 1290 1290 1290 24 1290 1290 1290 1290 1290 1290 1290 1290 1290 1290 1290 1290 0 1290 1290 1290 1290 8 1290 1290 1290 1290 1290 1290 1290 1290 1290 1290 1290 1290 25 1290 1290 1290 1290 1290 1290 1290 1290 1290 14 1290 1290 1290 1290 20 1290 1290 1290 1290 1290 1290 1290 1290 1290 1290 1290 1290 1290 1290
1290 1290 1290 1290 1290 8 1290 1290 1290 1290 1290 1290 1290 1290 1290 1290 1290 1290 1290 1290 1290 1290 1290 1290 1290 1290 1290 1290 1290 1290 1290 1290 1290 1290 1290 1290 1290 0 1290 1290 1290 1290 1290 1290 1290 1290 1290 1290 1290 1290 1290 1290 1290 1290 1290 1290 1290 1290 1290 1290 8 9 1290 1290 1290 1290 1290 1290 1290 1290 1290 1290 1290 1290 1290 1290 1290 1290 1290 11 4 1290 1290 1290
1290 1290 1290 1290 1290 11 1290 1290 1290 1290 1290 1290 1290 1290 1290 1290 1290 1290 2 1290 1290 1290 1290 1290 1290 1290 1290 1290 1290 1290 1290 1290 1290 1290 1290 1290 1290 1290 0 1290 1290 1290 1290 1290 1290 9 1290 1290 1290 1290 1290 1290 1290 1290 1290 1290 1290 1290 1290 1290 1290 1290 1290 4 1290 1290 1290 1290 1290 1290 1290 1290 1290 1290 1290 1290 1290 1290 1290 1290 1290 1290 6 1290
1290 1290 1290 1290 1290 1290 1290 1290 1290 1290 1290 21 13 1290 1290 1290 1290 19 1290 1290 1290 1290 1290 1290 1290 1290 1290 1290 1290 1290 1290 1290 1290 1290 1290 1290 1290 1290 1290 0 1290 1290 1290 1290 1290 1290 1290 1290 1290 1290 1290 1290 1290 1290 1290 1290 1290 1290 1290 21 1290 1290 1290 1290 1290 1290 1290 1290 1290 1290 1290 1290 1290 8 1290 1290 1290 1290 1290 1290 1290 1290 1290 1290
1290 1290 1290 1290 14 1290 1290 1290 1290 1290 1290 1290 1290 1290 1290 8 1290 1290 1290 1290 1290 1290 17 1290 12 1290 15 1290 1290 1290 1290 1290 14 1290 1290 1290 1290 1290 1290 1290 0 1290 1290 1290 1290 1290 1290 1290 1290 17 1290 1290 1290 1290 1290 1290 1290 1290 1290 1290 1290 1290 1290 1290 1290 1290 1290 1290 1290 1290 1290 1290 1290 1290 1290 1290 1290 1290 1290 1290 1290 1290 1290 1290
1290 1290 1290 1290 1290 1290 1290 1290 1290 1290 1290 1290 1290 1290 1290 1290 1290 1290 1290 17 1290 1290 1290 1290 1290 1290 1290 1290 1290 1290 1290 1290 1290 1290 1290 1290 8 1290 1290 1290 1290 0 1290 1290 1290 1290 1290 1290 1290 1290 1290 1290 1290 1290 17 1290 1290 1290 1290 1290 1290 1290 1290 1290 15 1290 1290 1290 1290 1290 1290 1290 1290 1290 1290 1290 1290 11 1290 1290 1290 1290 1290 1290
1290 1290 1290 11 1290 1290 1290 1290 1290 1290 1290 1290 1290 1290 1290 1290 8 1290 1290 8 1290 1290 1290 1290 1290 1290 1290 1290 1290 1290 1290 1290 1290 1290 1290 1290 1290 1290 1290 1290 1290 1290 0 1290 1290 1290 1290 1290 1290 7 1290 1290 1290 1290 1290 1290 1290 1290 1290 1290 1290 1290 1290 1290 13 1290 1290 1290 1290 1290 1290 1290 1290 1290 1290 1290 1290 1290 1290 1290 1290 1290 1290 1290
1290 1290 1290 1290 1290 1290 1290 1290 15 1290 1290 1290 1290 1290 1290 1290 1290 1290 1290 1290 1290 44 1290 1290 1290 1290 1290 1290 1290 1290 16 1290 1290 1290 1290 1290 1290 1290 1290 1290 1290 1290 1290 0 19 1290 1290 1290 1290 1290 1290 1290 1290 1290 1290 1290 1290 1290 1290 1290 1290 1290 1290 1290 1290 1290 1290 1290 1290 1290 1290 1290 1290 1290 1290 1290 28 1290 8 1290 1290 1290 1290 1290
1290 1290 1290 1290 1290 1290 1290 18 1290 1290 1290 1290 1290 1290 1290 1290 1290 1290 1290 1290 1290 1290 1290 1290 1290 1290 1290 1290 1290 1290 7 1290 1290 1290 1290 1290 1290 1290 1290 1290 1290 1290 1290 19 0 1290 1290 1290 1290 1290 1290 1290 1290 1290 1290 1290 1290 1290 1290 1290 1290 1290 1290 1290 1290 1290 1290 1290 1290 1290 1290 1290 1290 1290 1290 1290 12 1290 1290 1290 1290 1290 1290 1290
1290 13 1290 1290 1290 1290 1290 1290 1290 1290 1290 1290 1290 1290 1290 1290 1290 1290 9 1290 11 1290 1290 1290 1290 8 1290 1290 1290 1290 1290 1290 1290 1290 1290 1290 1290 1290 9 1290 1290 1290 1290 1290 1290 0 1290 1290 1290 1290 1290 1290 1290 1290 1290 1290 1290 1290 1290 1290 1290 1290 1290 9 1290 1290 1290 1290 1290 1290 1290 1290 1290 1290 1290 7 1290 1290 1290 1290 1290 1290 1290 1290
1290 1290 1290 1290 1290 1290 1290 1290 1290 1290 1290 1290 1290 1290 1290 1290 1290 1290 1290 1290 1290 1290 1290 1290 1290 1290 1290 12 1290 1290 1290 1290 1290 1290 1290 1290 1290 1290 1290 1290 1290 1290 1290 1290 1290 1290 0 8 1290 1290 1290 1290 1290 1290 1290 1290 1290 1290 1290 1290 1290 1290 2 1290 1290 1290 1290 1290 12 1290 1290 1290 1290 1290 1290 1290 1290 1290 1290 1290 1290 1290 1290 9
1290 1290 1290 1290 1290 1290 1290 5 1290 1290 1290 1290 1290 1290 1290 1290 1290 1290 1290 1290 1290 1290 1290 1290 1290 1290 1290 1290 1290 1290 1290 1290 1290 1290 1290 1290 1290 1290 1290 1290 1290 1290 1290 1290 1290 1290 8 0 1290 1290 1290 1290 1290 1290 1290 1290 1290 1290 1290 1290 1290 1290 10 1290 1290 1290 1290 1290 6 1290 1290 1290 1290 1290 1290 1290 1290 1290 1290 1290 1290 1290 1290 1290
1290 1290 1290 1290 1290 1290 1290 1290 1290 1290 1290 1290 15 1290 1290 1290 1290 1290 1290 1290 1290 1290 1290 1290 1290 1290 1290 16 1290 1290 1290 15 1290 1290 1290 1290 1290 1290 1290 1290 1290 1290 1290 1290 1290 1290 1290 1290 0 1290 1290 1290 1290 1290 1290 1290 1290 11 1290 1290 1290 1290 1290 1290 1290 1290 1290 1290 20 1290 1290 1290 1290 1290 1290 1290 1290 1290 1290 1290 1290 1290 1290 1290
1290 1290 1290 1290 1290 1290 1290 1290 1290 1290 1290 1290 1290 1290 1290 1290 1 1290 1290 13 1290 1290 1290 1290 13 1290 1290 1290 1290 1290 1290 1290 14 1290 1290 1290 1290 1290 1290 1290 17 1290 7 1290 1290 1290 1290 1290 1290 0 1290 1290 1290 1290 1290 1290 1290 1290 1290 1290 11 1290 1290 1290 1290 1290 1290 1290 1290 1290 1290 1290 1290 1290 1290 1290 1290 1290 1290 1290 8 1290 1290 1290
1290 1290 1290 1290 1290 1290 16 24 1290 1290 1290 1290 1290 25 1290 1290 1290 1290 1290 1290 1290 1290 1290 1290 1290 1290 1290 1290 15 1290 1290 1290 1290 1290 1290 1290 1290 1290 1290 1290 1290 1290 1290 1290 1290 1290 1290 1290 1290 1290 0 1290 1290 1290 1290 1290 1290 1290 1290 1290 1290 1290 1290 1290 1290 26 1290 1290 1290 1290 1290 1290 1290 1290 23 1290 9 1290 1290 1290 1290 1290 1290 1290
1290 1290 1290 1290 1290 1290 1290 1290 1290 3 1290 1290 1290 1290 8 1290 1290 1290 1290 1290 1290 1290 1290 1290 1290 1290 1290 1290 16 1290 1290 1290 1290 1290 1290 1290 1290 1290 1290 1290 1290 1290 1290 1290 1290 1290 1290 1290 1290 1290 1290 0 1290 1290 1290 1290 1290 1290 26 1290 1290 1290 1290 1290 1290 28 1290 11 1290 1290 1290 1290 1290 1290 1290 1290 1290 1290 1290 1290 1290 1290 1290 1290
1290 1290 1290 1290 1290 1290 1290 1290 10 1290 1290 1290 1290 1290 1290 1290 1290 1290 1290 1290 1290 1290 1290 1290 1290 1290 1290 1290 1290 1290 24 27 1290 1290 8 1290 1290 1290 1290 1290 1290 1290 1290 1290 1290 1290 1290 1290 1290 1290 1290 1290 0 1290 1290 1290 1290 1290 1290 31 1290 1290 1290 1290 1290 1290 1290 1290 1290 1290 1290 1290 1290 1290 1290 1290 1290 1290 1290 1290 1290 1290 1290 1290
1290 1290 1290 1290 1290 1290 1290 1290 1290 1290 1290 1290 7 1290 1290 1290 1290 1290 1290 1290 1290 1290 1290 1290 1290 1290 1290 1290 1290 1290 1290 13 1290 1290 1290 1290 1290 1290 1290 1290 1290 1290 1290 1290 1290 1290 1290 1290 1290 1290 1290 1290 1290 0 1290 1290 1290 1290 1290 11 1290 1290 1290 1290 1290 1290 1290 1290 1290 1290 1290 1290 1290 7 1290 1290 1290 1290 1290 1290 1290 3 1290 1290
1290 1290 1290 1290 11 1290 1290 1290 1290 47 1290 1290 1290 1290 1290 1290 1290 1290 1290 1290 1290 1290 12 1290 1290 1290 1290 1290 1290 1290 1290 1290 1290 1290 1290 1290 25 1290 1290 1290 1290 17 1290 1290 1290 1290 1290 1290 1290 1290 1290 1290 1290 1290 0 1290 1290 1290 18 1290 1290 1290 1290 1290 1290 1290 1290 1290 1290 1290 1290 1290 1290 1290 1290 1290 1290 11 1290 1290 1290 1290 1290 1290
1290 1290 1290 1290 1290 1290 1290 1290 8 1290 1290 1290 1290 1290 1290 1290 1290 1290 1290 1290 1290 1290 1290 1290 1290 1290 1290 1290 1290 1290 1290 1290 1290 1290 14 1290 1290 1290 1290 1290 1290 1290 1290 1290 1290 1290 1290 1290 1290 1290 1290 1290 1290 1290 1290 0 1290 1290 1290 1290 1290 1290 1290 1290 1290 1290 1290 1290 1290 1290 1290 1290 1290 1290 1290 1290 1290 1290 13 1290 1290 1290 1290 1290
1290 3 1290 1290 1290 1290 1290 1290 1290 1290 1290 1290 1290 1290 1290 1290 1290 1290 1290 1290 1290 1290 1290 1290 1290 1290 1290 1290 1290 1290 1290 1290 1290 1290 1290 1290 1290 1290 1290 1290 1290 1290 1290 1290 1290 1290 1290 1290 1290 1290 1290 1290 1290 1290 1290 1290 0 11 1290 1290 1290 1290 1290 9 1290 1290 3 1290 1290 1290 1290 1290 1290 1290 1290 1290 1290 1290 1290 1290 1290 1290 1290 1290
1290 13 1290 1290 1290 1290 1290 1290 1290 1290 1290 1290 21 1290 1290 1290 1290 1290 1290 1290 1290 1290 1290 1290 1290 1290 1290 11 1290 1290 1290 1290 1290 1290 1290 1290 1290 1290 1290 1290 1290 1290 1290 1290 1290 1290 1290 1290 11 1290 1290 1290 1290 1290 1290 1290 11 0 1290 1290 1290 11 1290 1290 1290 1290 11 1290 1290 1290 1290 1290 1290 1290 1290 1290 1290 1290 1290 10 1290 1290 1290 1290
1290 1290 1290 1290 1290 1290 1290 1290 1290 29 11 1290 1290 1290 1290 1290 1290 1290 1290 1290 1290 1290 9 1290 1290 1290 1290 1290 1290 1290 1290 1290 1290 1290 1290 1290 1290 1290 1290 1290 1290 1290 1290 1290 1290 1290 1290 1290 1290 1290 1290 26 1290 1290 18 1290 1290 1290 0 1290 1290 1290 1290 1290 1290 12 1290 1290 1290 1290 1290 1290 1290 1290 1290 1290 1290 1290 1290 1290 1290 1290 1290 1290
1290 1290 1290 1290 1290 1290 1290 1290 1290 1290 1290 42 1290 1290 1290 1290 1290 1290 1290 1290 1290 1290 1290 1290 1290 1290 1290 1290 1290 1290 1290 14 1290 1290 32 1290 1290 1290 1290 21 1290 1290 1290 1290 1290 1290 1290 1290 1290 1290 1290 1290 31 11 1290 1290 1290 1290 1290 0 1290 1290 1290 1290 1290 1290 1290 1290 1290 1290 1290 1290 1290 14 1290 1290 1290 1290 1290 1290 1290 9 1290 1290
1290 1290 1290 1290 1290 1290 1290 1290 1290 1290 1290 1290 1290 1290 1290 1290 1290 1290 1290 1290 1290 1290 1290 1290 3 1290 1290 1290 1290 1290 1290 1290 1290 1290 1290 1290 1290 8 1290 1290 1290 1290 1290 1290 1290 1290 1290 1290 1290 11 1290 1290 1290 1290 1290 1290 1290 1290 1290 1290 0 1290 1290 1290 1290 1290 1290 1290 1290 1290 1290 1290 1290 1290 1290 1290 1290 1290 1290 15 8 1290 1290 8
1290 1290 1290 1290 1290 6 1290 1290 1290 1290 1290 1290 1290 1290 1290 1290 1290 1290 1290 1290 1290 1290 1290 1290 1290 1290 1290 1290 1290 1290 1290 1290 1290 1290 1290 1290 1290 9 1290 1290 1290 1290 1290 1290 1290 1290 1290 1290 1290 1290 1290 1290 1290 1290 1290 1290 1290 11 1290 1290 1290 0 1290 1290 1290 1290 8 1290 1290 1290 1290 1290 1290 1290 1290 1290 1290 1290 1290 6 1290 1290 1290 1290
1290 1290 1290 1290 1290 1290 1290 13 1290 1290 1290 1290 1290 1290 1290 19 1290 1290 1290 1290 1290 1290 1290 1290 1290 1290 8 1290 1290 1290 1290 1290 1290 1290 1290 1290 1290 1290 1290 1290 1290 1290 1290 1290 1290 1290 2 10 1290 1290 1290 1290 1290 1290 1290 1290 1290 1290 1290 1290 1290 1290 0 1290 1290 1290 1290 1290 1290 1290 1290 1290 1290 1290 21 1290 1290 1290 1290 1290 1290 1290 1290 8
1290 10 1290 1290 1290 9 1290 1290 1290 1290 1290 1290 1290 1290 1290 1290 1290 1290 1290 1290 1290 1290 1290 1290 1290 1290 1290 1290 1290 1290 1290 1290 1290 1290 1290 1290 1290 1290 4 1290 1290 1290 1290 1290 1290 9 1290 1290 1290 1290 1290 1290 1290 1290 1290 1290 9 1290 1290 1290 1290 1290 1290 0 1290 1290 8 1290 1290 1290 1290 1290 1290 1290 1290 1290 1290 1290 1290 1290 1290 1290 1290 1290
1290 1290 1290 12 1290 1290 1290 1290 1290 1290 1290 1290 1290 1290 1290 1290 1290 1290 1290 12 1290 1290 1290 1290 1290 1290 1290 1290 1290 1290 1290 1290 1290 1290 1290 1290 14 1290 1290 1290 1290 15 13 1290 1290 1290 1290 1290 1290 1290 1290 1290 1290 1290 1290 1290 1290 1290 1290 1290 1290 1290 1290 1290 0 1290 1290 1290 1290 13 1290 1290 1290 1290 1290 1290 1290 1290 1290 1290 1290 1290 1290 1290
1290 1290 1290 1290 1290 1290 1290 1290 1290 1290 3 1290 1290 1 1290 1290 1290 1290 1290 1290 1290 1290 1290 1290 1290 1290 1290 1290 30 1290 1290 1290 1290 1290 1290 1290 1290 1290 1290 1290 1290 1290 1290 1290 1290 1290 1290 1290 1290 1290 26 28 1290 1290 1290 1290 1290 1290 12 1290 1290 1290 1290 1290 1290 0 1290 1290 1290 1290 1290 1290 1290 1290 1290 1290 1290 1290 1290 1290 1290 1290 1290 1290
1290 1290 1290 1290 1290 8 1290 1290 1290 1290 1290 1290 1290 1290 1290 1290 1290 1290 1290 1290 1290 1290 1290 1290 1290 1290 1290 1290 1290 1290 1290 1290 1290 1290 1290 1290 1290 1290 1290 1290 1290 1290 1290 1290 1290 1290 1290 1290 1290 1290 1290 1290 1290 1290 1290 1290 3 11 1290 1290 1290 8 1290 8 1290 1290 0 1290 1290 1290 1290 1290 1290 1290 1290 1290 1290 1290 1290 1290 1290 1290 1290 1290
1290 1290 6 1290 1290 1290 1290 1290 1290 1290 1290 1290 1290 1290 5 1290 1290 1290 1290 1290 1290 1290 1290 1290 1290 1290 1290 1290 9 1290 1290 1290 1290 1290 1290 1290 1290 1290 1290 1290 1290 1290 1290 1290 1290 1290 1290 1290 1290 1290 1290 11 1290 1290 1290 1290 1290 1290 1290 1290 1290 1290 1290 1290 1290 1290 1290 0 1290 1290 1290 1290 3 1290 1290 1290 1290 1290 1290 1290 1290 1290 1290 1290
1290 1290 1290 1290 1290 1290 1290 8 1290 1290 1290 1290 1290 1290 1290 1290 1290 1290 1290 1290 1290 1290 1290 1290 1290 1290 1290 15 1290 1290 22 25 1290 1290 1290 1290 1290 1290 1290 1290 1290 1290 1290 1290 1290 1290 12 6 20 1290 1290 1290 1290 1290 1290 1290 1290 1290 1290 1290 1290 1290 1290 1290 1290 1290 1290 1290 0 1290 1290 1290 1290 1290 1290 1290 1290 1290 1290 1290 1290 1290 1290 1290
1290 1290 1290 15 1290 1290 1290 1290 1290 1290 1290 1290 1290 1290 1290 1290 1290 1290 1290 1290 1290 1290 1290 5 1290 1290 1290 1290 1290 1290 1290 1290 1290 1290 1290 1290 20 1290 1290 1290 1290 1290 1290 1290 1290 1290 1290 1290 1290 1290 1290 1290 1290 1290 1290 1290 1290 1290 1290 1290 1290 1290 1290 1290 13 1290 1290 1290 1290 0 1290 1290 1290 1290 1290 1290 1290 1290 1290 1290 1290 1290 1290 1290
25 1290 1290 1290 1290 1290 1290 1290 1290 1290 1290 1290 1290 1290 1290 1290 1290 1290 1290 1290 1290 1290 1290 1290 1290 6 1290 1290 1290 8 1290 1290 1290 36 1290 34 1290 1290 1290 1290 1290 1290 1290 1290 1290 1290 1290 1290 1290 1290 1290 1290 1290 1290 1290 1290 1290 1290 1290 1290 1290 1290 1290 1290 1290 1290 1290 1290 1290 1290 0 1290 1290 1290 1290 16 1290 1290 1290 1290 1290 1290 1290 1290
10 1290 1290 18 1290 1290 1290 1290 1290 1290 1290 1290 1290 1290 1290 1290 22 1290 1290 1290 1290 1290 1290 1290 1290 1290 1290 1290 1290 1290 1290 1290 1290 1290 1290 1290 1290 1290 1290 1290 1290 1290 1290 1290 1290 1290 1290 1290 1290 1290 1290 1290 1290 1290 1290 1290 1290 1290 1290 1290 1290 1290 1290 1290 1290 1290 1290 1290 1290 1290 1290 0 1290 1290 1290 7 1290 1290 1290 1290 1290 1290 4 1290
1290 1290 8 1290 1290 1290 1290 1290 1290 1290 1290 1290 1290 1290 1290 1290 1290 1290 1290 1290 1290 8 1290 1290 1290 1290 1290 1290 8 1290 1290 1290 1290 1290 1290 1290 1290 1290 1290 1290 1290 1290 1290 1290 1290 1290 1290 1290 1290 1290 1290 1290 1290 1290 1290 1290 1290 1290 1290 1290 1290 1290 1290 1290 1290 1290 1290 3 1290 1290 1290 1290 0 1290 1290 1290 1290 1290 1290 1290 1290 1290 1290 1290
1290 1290 1290 1290 1290 1290 1290 1290 1290 1290 1290 1290 10 1290 1290 1290 1290 1290 1290 1290 1290 1290 1290 1290 1290 1290 1290 1290 1290 1290 1290 1290 1290 1290 1290 1290 1290 1290 1290 8 1290 1290 1290 1290 1290 1290 1290 1290 1290 1290 1290 1290 1290 7 1290 1290 1290 1290 1290 14 1290 1290 1290 1290 1290 1290 1290 1290 1290 1290 1290 1290 1290 0 1290 1290 1290 1290 1290 1290 1290 5 1290 1290
1290 1290 1290 1290 1290 1290 1290 27 1290 1290 1290 1290 1290 5 1290 8 1290 1290 1290 1290 1290 1290 1290 1290 1290 1290 1290 1290 1290 1290 1290 1290 1290 1290 1290 1290 1290 1290 1290 1290 1290 1290 1290 1290 1290 1290 1290 1290 1290 1290 23 1290 1290 1290 1290 1290 1290 1290 1290 1290 1290 1290 21 1290 1290 1290 1290 1290 1290 1290 1290 1290 1290 1290 0 1290 1290 1290 1290 1290 1290 1290 1290 1290
15 1290 1290 1290 1290 1290 1290 1290 1290 1290 1290 1290 1290 1290 1290 1290 1290 1290 5 1290 1290 1290 1290 1290 1290 13 1290 1290 1290 1290 1290 1290 1290 1290 1290 1290 1290 1290 1290 1290 1290 1290 1290 1290 1290 7 1290 1290 1290 1290 1290 1290 1290 1290 1290 1290 1290 1290 1290 1290 1290 1290 1290 1290 1290 1290 1290 1290 1290 1290 16 7 1290 1290 1290 0 1290 1290 1290 1290 1290 1290 6 1290
1290 1290 1290 1290 1290 1290 19 23 1290 1290 1290 1290 1290 1290 1290 1290 1290 1290 1290 1290 1290 21 1290 1290 1290 1290 1290 1290 1290 1290 1290 1290 1290 1290 1290 1290 1290 1290 1290 1290 1290 1290 1290 28 12 1290 1290 1290 1290 1290 9 1290 1290 1290 1290 1290 1290 1290 1290 1290 1290 1290 1290 1290 1290 1290 1290 1290 1290 1290 1290 1290 1290 1290 1290 1290 0 1290 1290 1290 1290 1290 1290 1290
1290 1290 1290 1290 4 1290 1290 1290 1290 1290 1290 1290 1290 1290 1290 1290 1290 1290 1290 11 1290 1290 1290 1290 1290 1290 1290 1290 1290 1290 1290 1290 10 1290 1290 1290 1290 1290 1290 1290 1290 11 1290 1290 1290 1290 1290 1290 1290 1290 1290 1290 1290 1290 11 1290 1290 1290 1290 1290 1290 1290 1290 1290 1290 1290 1290 1290 1290 1290 1290 1290 1290 1290 1290 1290 1290 0 1290 1290 1290 1290 1290 1290
1290 1290 1290 1290 1290 1290 1290 1290 12 1290 1290 1290 1290 1290 1290 1290 1290 1290 1290 1290 1290 51 1290 1290 1290 1290 1290 1290 1290 1290 1290 1290 1290 1290 1290 1290 1290 1290 1290 1290 1290 1290 1290 8 1290 1290 1290 1290 1290 1290 1290 1290 1290 1290 1290 13 1290 1290 1290 1290 1290 1290 1290 1290 1290 1290 1290 1290 1290 1290 1290 1290 1290 1290 1290 1290 1290 1290 0 1290 1290 1290 1290 1290
1290 1290 1290 1290 1290 1290 1290 1290 1290 1290 1290 1290 1290 1290 1290 1290 1290 1290 1290 1290 1290 1290 1290 1290 1290 1290 1290 6 1290 1290 1290 1290 1290 1290 1290 1290 1290 11 1290 1290 1290 1290 1290 1290 1290 1290 1290 1290 1290 1290 1290 1290 1290 1290 1290 1290 1290 10 1290 1290 15 6 1290 1290 1290 1290 1290 1290 1290 1290 1290 1290 1290 1290 1290 1290 1290 1290 1290 0 1290 1290 1290 15
1290 1290 1290 1290 1290 10 1290 1290 1290 1290 1290 1290 1290 1290 1290 1290 8 1290 1290 1290 1290 1290 1290 1290 1290 1290 1290 1290 1290 1290 1290 1290 1290 1290 1290 1290 1290 4 1290 1290 1290 1290 1290 1290 1290 1290 1290 1290 1290 8 1290 1290 1290 1290 1290 1290 1290 1290 1290 1290 8 1290 1290 1290 1290 1290 1290 1290 1290 1290 1290 1290 1290 1290 1290 1290 1290 1290 1290 1290 0 1290 19 1290
1290 1290 1290 1290 1290 1290 1290 1290 1290 1290 1290 1290 1290 1290 1290 1290 1290 1290 1290 1290 1290 1290 1290 1290 1290 1290 1290 1290 1290 1290 1290 1290 1290 1290 1290 1290 1290 1290 1290 1290 1290 1290 1290 1290 1290 1290 1290 1290 1290 1290 1290 1290 1290 3 1290 1290 1290 1290 1290 9 1290 1290 1290 1290 1290 1290 1290 1290 1290 1290 1290 1290 1290 5 1290 1290 1290 1290 1290 1290 1290 0 1290 1290
1290 1290 1290 1290 1290 15 1290 1290 1290 1290 1290 1290 1290 1290 1290 1290 21 1290 4 1290 1290 1290 1290 1290 1290 1290 1290 1290 1290 1290 1290 1290 1290 1290 1290 1290 1290 1290 6 1290 1290 1290 1290 1290 1290 1290 1290 1290 1290 1290 1290 1290 1290 1290 1290 1290 1290 1290 1290 1290 1290 1290 1290 1290 1290 1290 1290 1290 1290 1290 1290 4 1290 1290 1290 6 1290 1290 1290 1290 19 1290 0 1290
1290 1290 1290 1290 1290 1290 1290 1290 1290 1290 1290 1290 1290 1290 1290 1290 1290 1290 1290 1290 1290 1290 1290 1290 6 1290 1 14 1290 1290 1290 1290 1290 1290 1290 1290 1290 1290 1290 1290 1290 1290 1290 1290 1290 1290 9 1290 1290 1290 1290 1290 1290 1290 1290 1290 1290 1290 1290 1290 8 1290 8 1290 1290 1290 1290 1290 1290 1290 1290 1290 1290 1290 1290 1290 1290 1290 1290 15 1290 1290 1290 0
EOF
